Version identifier: 22.1.1.0 | 2022-11-28 | 9160aff4d
CPXPARAM_ClockType                               1
CPXPARAM_Read_DataCheck                          1
CPXPARAM_Threads                                 1
CPXPARAM_TimeLimit                               7200
CPXPARAM_MIP_Tolerances_AbsMIPGap                0
CPXPARAM_MIP_Tolerances_MIPGap                   0
CPXPARAM_MIP_Tolerances_Integrality              0
Tried aggregator 2 times.
MIP Presolve eliminated 1307 rows and 4 columns.
MIP Presolve modified 1368 coefficients.
Aggregator did 450 substitutions.
Reduced MIP has 4264 rows, 2246 columns, and 13556 nonzeros.
Reduced MIP has 2246 binaries, 0 generals, 0 SOSs, and 0 indicators.
Presolve time = 0.02 sec. (15.20 ticks)
Found incumbent of value -3396.000000 after 0.04 sec. (30.29 ticks)
Probing time = 0.00 sec. (2.45 ticks)
Tried aggregator 1 time.
Detecting symmetries...
MIP Presolve eliminated 250 rows and 1 columns.
Reduced MIP has 4014 rows, 2245 columns, and 12805 nonzeros.
Reduced MIP has 2245 binaries, 0 generals, 0 SOSs, and 0 indicators.
Presolve time = 0.02 sec. (13.07 ticks)
Probing time = 0.01 sec. (2.24 ticks)
Clique table members: 2210.
MIP emphasis: balance optimality and feasibility.
MIP search method: dynamic search.
Parallel mode: none, using 1 thread.
Root relaxation solution time = 0.25 sec. (248.73 ticks)

        Nodes                                         Cuts/
   Node  Left     Objective  IInf  Best Integer    Best Bound    ItCnt     Gap

*     0+    0                        -3396.0000     2100.0000           161.84%
      0     0      800.0000   758    -3396.0000      800.0000     2000  123.56%
      0     0      800.0000   739    -3396.0000      Cuts: 46     2224  123.56%
      0     0      800.0000   793    -3396.0000     Cuts: 173     3924  123.56%
      0     0      800.0000   732    -3396.0000      Cuts: 12     4800  123.56%
*     0+    0                          672.0000      800.0000            19.05%
      0     0      800.0000   725      672.0000     Cuts: 133     5065   19.05%
      0     0      800.0000   755      672.0000  ZeroHalf: 91     6425   19.05%
Detecting symmetries...
*     0+    0                          684.0000      800.0000            16.96%
*     0+    0                          688.0000      800.0000            16.28%
*     0+    0                          690.0000      800.0000            15.94%
Detecting symmetries...
      0     2      800.0000   683      690.0000      800.0000     6425   15.94%
Elapsed time = 3.48 sec. (2653.33 ticks, tree = 0.01 MB, solutions = 5)
      1     3      800.0000   623      690.0000      800.0000     8832   15.94%
      3     5      800.0000   679      690.0000      800.0000    11487   15.94%
      5     7      800.0000   634      690.0000      800.0000    13833   15.94%
      6     8      800.0000   629      690.0000      800.0000    16075   15.94%
      8    10      800.0000   595      690.0000      800.0000    18167   15.94%
     10    12      800.0000   566      690.0000      800.0000    18526   15.94%
     12    14      800.0000   466      690.0000      800.0000    19681   15.94%
     29    31      800.0000   229      690.0000      800.0000    21272   15.94%
     42    44      795.1111   565      690.0000      800.0000    23420   15.94%
     64    56    infeasible            690.0000      800.0000    28900   15.94%
Elapsed time = 7.35 sec. (6498.40 ticks, tree = 1.60 MB, solutions = 5)
     82    64      798.7971   624      690.0000      800.0000    34712   15.94%
    103    71      798.8056   562      690.0000      800.0000    40633   15.94%
    118    76    infeasible            690.0000      800.0000    47213   15.94%
*   130+   80                          694.0000      800.0000            15.27%
*   131    77      integral     0      710.0000      800.0000    52759   12.68%
    132    78      798.3067   591      710.0000      800.0000    54135   12.68%
    144    78      799.5000   484      710.0000      800.0000    61258   12.68%
*   157    83      integral     0      766.0000      800.0000    66202    4.44%
    161    83      799.5000   534      766.0000      800.0000    67953    4.44%
    175    84      799.5000   448      766.0000      800.0000    75086    4.44%
    192    85      799.7500   503      766.0000      800.0000    82098    4.44%
    211    88      799.6543   622      766.0000      800.0000    87851    4.44%
    232    91        cutoff            766.0000      800.0000    94305    4.44%
Elapsed time = 18.14 sec. (16682.52 ticks, tree = 2.53 MB, solutions = 8)
    246    91      798.8889   556      766.0000      800.0000   102531    4.44%
    261    92      795.4815   498      766.0000      800.0000   108568    4.44%
    277    88    infeasible            766.0000      800.0000   115639    4.44%
*   280+   78                          794.0000      800.0000             0.76%
    298    85      799.0000   456      794.0000      800.0000   122048    0.76%
*   320+    1                          800.0000      800.0000             0.00%

GUB cover cuts applied:  1
Clique cuts applied:  13
Implied bound cuts applied:  10
Mixed integer rounding cuts applied:  1
Zero-half cuts applied:  24

Root node processing (before b&c):
  Real time             =    3.48 sec. (2646.58 ticks)
Sequential b&c:
  Real time             =   19.75 sec. (18960.95 ticks)
                          ------------
Total (root+branch&cut) =   23.23 sec. (21607.53 ticks)
Solution is feasible.

---------------------
@@@ MIP_optimal
>>> Benchmark flat50-6.cnf k 5 OPT 800 TimeCost 23.669811725616455 TimeSolve 23.317816257476807 TimeRead 0.0018379688262939453 TimeTrans 0.3501574993133545
